NAME (null)_copy
ROWS
 N  OBJ
 L  ROW00001
 L  ROW00011
 L  ROW00012
 L  ROW00013
 L  ROW00022
 L  ROW00023
 L  ROW00024
 E  ROW00027
 E  ROW00028
 E  ROW00029
 E  ROW00033
 L  ROW00034
 L  ROW00035
 L  ROW00044
 L  ROW00045
 L  ROW00046
 E  ROW00049
 E  ROW00050
COLUMNS
    COL00006  ROW00027  -1
    COL00006  ROW00022  -1
    COL00006  ROW00011  -1
    COL00006  ROW00001  3
    COL00007  ROW00028  -1
    COL00007  ROW00023  -1
    COL00007  ROW00012  -1
    COL00007  ROW00001  3
    COL00008  ROW00029  -1
    COL00008  ROW00024  -1
    COL00008  ROW00013  -1
    COL00008  ROW00001  3
    COL00012  ROW00027  -1
    COL00012  ROW00022  -1
    COL00012  ROW00011  3
    COL00013  ROW00028  -1
    COL00013  ROW00023  -1
    COL00013  ROW00011  3
    COL00014  ROW00029  -1
    COL00014  ROW00024  -1
    COL00014  ROW00011  3
    COL00023  ROW00022  3
    COL00023  ROW00027  -1
    COL00024  ROW00022  3
    COL00024  ROW00028  -1
    COL00025  ROW00022  3
    COL00025  ROW00029  -1
    COL00028  ROW00044  -1
    COL00028  ROW00033  -1
    COL00028  ROW00027  1
    COL00029  ROW00045  -1
    COL00029  ROW00034  -1
    COL00029  ROW00028  1
    COL00030  ROW00046  -1
    COL00030  ROW00035  -1
    COL00030  ROW00029  1
    COL00034  ROW00044  -1
    COL00034  ROW00033  3
    COL00035  ROW00045  -1
    COL00035  ROW00033  3
    COL00036  ROW00046  -1
    COL00036  ROW00033  3
    COL00038  OBJ       -2.1547080370609778e-01
    COL00038  ROW00035  4.2792501616031026e-01
    COL00038  ROW00034  2.8528334410687350e-01
    COL00038  ROW00050  1.8928248222365870e-01
    COL00038  ROW00049  1.2618832148243916e-01
    COL00038  ROW00012  8.6188321482439129e-02
    COL00038  ROW00013  1.2928248222365868e-01
    COL00038  ROW00023  1.8099547511312217e-01
    COL00038  ROW00024  2.7149321266968324e-01
    COL00038  ROW00045  0.4
    COL00038  ROW00046  0.6
    COL00046  ROW00044  4.2857142857142856e+00
    COL00046  ROW00049  -1
    COL00047  ROW00044  4.2857142857142856e+00
    COL00047  ROW00050  -1
RHS
    RHS1      ROW00001  300
    RHS1      ROW00011  300
    RHS1      ROW00022  300
    RHS1      ROW00033  300
    RHS1      ROW00044  300
BOUNDS
 UP BND1      COL00006  100.101
 UP BND1      COL00007  100.101
 UP BND1      COL00008  100.101
 UP BND1      COL00012  1.3346766666666667e+02
 UP BND1      COL00013  1.3346766666666667e+02
 UP BND1      COL00014  1.3346766666666667e+02
 UP BND1      COL00023  1.7795655555555558e+02
 UP BND1      COL00024  1.7795655555555558e+02
 UP BND1      COL00025  1.7795655555555558e+02
 UP BND1      COL00028  4.1152322222222227e+02
 UP BND1      COL00029  4.1152322222222227e+02
 UP BND1      COL00030  4.1152322222222227e+02
 UP BND1      COL00034  2.3727507407407407e+02
 UP BND1      COL00035  2.3727507407407407e+02
 UP BND1      COL00036  2.3727507407407407e+02
 UP BND1      COL00038  7.7427450000000010e+02
 LO BND1      COL00046  -0.001
 UP BND1      COL00046  9.7705273333333380e+01
 LO BND1      COL00047  -0.001
 UP BND1      COL00047  1.4655741000000003e+02
ENDATA
